jobs 122 
horizon 665 
PRECEDENCE:
1    
2    1
3    1
4    1
5    4
6    2
7    4
8    2
9    6
10    2
11    8
12    7
13    9
14    3
15    9
16    11
17    14
18    8
19    10
20    7
21    17
22    17
23    20
24    9
25    21
26    19
27    23
28    6
29    26
30    11
31    12
32    10
33    19 32
34    22
35    17
36    3
37    19
38    23
39    6
40    16
41    38
42    27
43    8
44    13
45    18
46    33
47    3
48    46
49    47
50    13 35
51    34
52    13
53    12
54    15
55    36 40
56    53
57    27
58    52
59    55
60    18
61    36
62    21
63    38
64    55
65    34 48 56
66    26 30
67    53
68    5
69    11 38 45
70    67
71    61
72    63
73    18 66
74    29 49
75    27 60
76    57
77    31
78    52 70
79    28 74
80    64
81    75
82    77
83    61
84    79
85    76
86    37 39 47
87    61
88    75 85
89    28 58 71
90    41 52 82
91    86 90
92    5
93    45 88
94    81
95    87
96    44 72 75
97    79
98    89 96
99    90
100    49 83 98
101    93 96
102    62 69 83
103    36 97 101
104    28
105    42
106    65 102
107    25 50 106
108    78 80
109    24 90
110    68 93
111    55 95 100
112    51 99 110
113    92 105 112
114    54 73 104
115    21 103 111
116    84 113 114
117    79 82 107
118    43 94 108
119    83 116 118
120    59 80 109
121    91 115 117
122    119 120 121
RESOURCEAVAILABILITY 32
REQUESTS/DURATIONS: 
 1 0 0 
 2 8 0 
 3 9 10 
 4 6 10 
 5 2 0 
 6 9 0 
 7 9 0 
 8 1 0 
 9 10 0 
 10 1 0 
 11 7 0 
 12 4 5 
 13 10 0 
 14 3 7 
 15 6 4 
 16 10 0 
 17 8 0 
 18 2 0 
 19 3 9 
 20 5 3 
 21 10 0 
 22 5 1 
 23 4 0 
 24 4 2 
 25 10 5 
 26 10 0 
 27 3 10 
 28 2 0 
 29 5 2 
 30 10 7 
 31 6 0 
 32 9 0 
 33 9 8 
 34 2 10 
 35 4 0 
 36 10 0 
 37 9 0 
 38 10 10 
 39 5 2 
 40 6 0 
 41 3 0 
 42 1 9 
 43 4 0 
 44 3 1 
 45 1 1 
 46 2 5 
 47 1 0 
 48 3 0 
 49 9 0 
 50 2 4 
 51 9 0 
 52 8 0 
 53 6 7 
 54 3 2 
 55 2 0 
 56 4 0 
 57 6 5 
 58 7 6 
 59 10 10 
 60 5 7 
 61 4 7 
 62 2 1 
 63 2 1 
 64 3 0 
 65 6 5 
 66 9 8 
 67 7 0 
 68 10 0 
 69 3 0 
 70 4 0 
 71 6 0 
 72 9 10 
 73 3 0 
 74 2 7 
 75 7 9 
 76 4 6 
 77 9 0 
 78 10 0 
 79 4 0 
 80 1 3 
 81 10 3 
 82 2 2 
 83 7 6 
 84 4 4 
 85 9 5 
 86 2 0 
 87 2 0 
 88 7 0 
 89 6 0 
 90 5 10 
 91 8 6 
 92 5 0 
 93 9 2 
 94 8 0 
 95 8 0 
 96 3 7 
 97 2 0 
 98 4 2 
 99 7 9 
100 1 3 
101 8 10 
102 4 1 
103 8 0 
104 4 2 
105 9 4 
106 8 0 
107 3 4 
108 4 0 
109 6 0 
110 4 5 
111 2 0 
112 4 4 
113 7 4 
114 10 10 
115 6 8 
116 8 0 
117 7 0 
118 1 0 
119 3 0 
120 6 1 
121 4 10 
122 0 0 
